NAME          ClpDefau  FREE
ROWS
 N  OBJROW
 L  ZMUNI1_PCT
 L  ZMUNI2_PCT
 L  ZMUNI3_PCT
 L  ZMUNI4_PCT
 L  ZMUNI5_PCT
 L  ZMUNI6_PCT
 L  ZMUNI7_PCT
 L  ZMUNI8_PCT
 L  ZMUNI9_PCT
COLUMNS
    QMUNI1 OBJROW 1.          
    QMUNI1 ZMUNI1_PCT 30938.5299  
    QMUNI1 ZMUNI2_PCT 2066.6122   
    QMUNI1 ZMUNI3_PCT 4521.1792   
    QMUNI1 ZMUNI4_PCT 3313.6367   
    QMUNI1 ZMUNI5_PCT 518.9896    
    QMUNI1 ZMUNI6_PCT 693.8934    
    QMUNI1 ZMUNI7_PCT 2433.7769   
    QMUNI1 ZMUNI8_PCT 1817.3217   
    QMUNI1 ZMUNI9_PCT 981.9031    
    QMUNI2 OBJROW 1.          
    QMUNI2 ZMUNI1_PCT 1608.0856   
    QMUNI2 ZMUNI2_PCT 35992.8131  
    QMUNI2 ZMUNI3_PCT 2421.5698   
    QMUNI2 ZMUNI4_PCT 2570.7245   
    QMUNI2 ZMUNI5_PCT  -183.1054  
    QMUNI2 ZMUNI6_PCT  -101.8524  
    QMUNI2 ZMUNI7_PCT 725.174     
    QMUNI2 ZMUNI8_PCT 910.1867    
    QMUNI2 ZMUNI9_PCT 796.6995    
    QMUNI3 OBJROW 1.          
    QMUNI3 ZMUNI1_PCT 4277.0385   
    QMUNI3 ZMUNI2_PCT 2649.6887   
    QMUNI3 ZMUNI3_PCT 31845.8557  
    QMUNI3 ZMUNI4_PCT 5096.6262   
    QMUNI3 ZMUNI5_PCT 160.4081    
    QMUNI3 ZMUNI6_PCT 329.7806    
    QMUNI3 ZMUNI7_PCT 1927.5666   
    QMUNI3 ZMUNI8_PCT 1635.7422   
    QMUNI3 ZMUNI9_PCT 692.9398    
    QMUNI4 OBJROW 1.          
    QMUNI4 ZMUNI1_PCT 3570.7473   
    QMUNI4 ZMUNI2_PCT 3299.9038   
    QMUNI4 ZMUNI3_PCT 5759.2392   
    QMUNI4 ZMUNI4_PCT 111589.6225 
    QMUNI4 ZMUNI5_PCT 339.3174    
    QMUNI4 ZMUNI6_PCT 459.4803    
    QMUNI4 ZMUNI7_PCT 1687.2406   
    QMUNI4 ZMUNI8_PCT 1470.9472   
    QMUNI4 ZMUNI9_PCT 886.5357    
    QMUNI5 OBJROW 1.          
    QMUNI5 ZMUNI1_PCT 20.2179     
    QMUNI5 ZMUNI2_PCT  -86.9751   
    QMUNI5 ZMUNI3_PCT  -28.801    
    QMUNI5 ZMUNI4_PCT  -36.6211   
    QMUNI5 ZMUNI5_PCT 37618.4464  
    QMUNI5 ZMUNI6_PCT 2597.0459   
    QMUNI5 ZMUNI7_PCT  -48.8281   
    QMUNI5 ZMUNI8_PCT  -236.5113  
    QMUNI5 ZMUNI9_PCT  -422.0962  
    QMUNI6 OBJROW 1.          
    QMUNI6 ZMUNI1_PCT 453.5675    
    QMUNI6 ZMUNI2_PCT 296.7834    
    QMUNI6 ZMUNI3_PCT 385.0937    
    QMUNI6 ZMUNI4_PCT 338.3636    
    QMUNI6 ZMUNI5_PCT 2909.8511   
    QMUNI6 ZMUNI6_PCT 34874.1531  
    QMUNI6 ZMUNI7_PCT 584.4117    
    QMUNI6 ZMUNI8_PCT 312.4237    
    QMUNI6 ZMUNI9_PCT 221.6339    
    QMUNI7 OBJROW 1.          
    QMUNI7 ZMUNI1_PCT 1239.0136   
    QMUNI7 ZMUNI2_PCT 586.5097    
    QMUNI7 ZMUNI3_PCT 1045.7992   
    QMUNI7 ZMUNI4_PCT 769.0429    
    QMUNI7 ZMUNI5_PCT  -8.0108    
    QMUNI7 ZMUNI6_PCT 235.939     
    QMUNI7 ZMUNI7_PCT 36071.7774  
    QMUNI7 ZMUNI8_PCT 2052.3071   
    QMUNI7 ZMUNI9_PCT  -4.9591    
    QMUNI8 OBJROW 1.          
    QMUNI8 ZMUNI1_PCT 1203.7277   
    QMUNI8 ZMUNI2_PCT 1013.565    
    QMUNI8 ZMUNI3_PCT 1205.4443   
    QMUNI8 ZMUNI4_PCT 950.4318    
    QMUNI8 ZMUNI5_PCT 59.3186     
    QMUNI8 ZMUNI6_PCT 162.1246    
    QMUNI8 ZMUNI7_PCT 2625.6562   
    QMUNI8 ZMUNI8_PCT 31492.6147  
    QMUNI8 ZMUNI9_PCT 1214.5996   
    QMUNI9 OBJROW 1.          
    QMUNI9 ZMUNI1_PCT 344.2764    
    QMUNI9 ZMUNI2_PCT 650.5966    
    QMUNI9 ZMUNI3_PCT 428.772     
    QMUNI9 ZMUNI4_PCT 375.3662    
    QMUNI9 ZMUNI5_PCT  -53.215    
    QMUNI9 ZMUNI6_PCT 3.4332000002
    QMUNI9 ZMUNI7_PCT 432.9682    
    QMUNI9 ZMUNI8_PCT 875.473     
    QMUNI9 ZMUNI9_PCT 29671.2875  
RHS
    RHS ZMUNI1_PCT 1.2753332107
    RHS ZMUNI2_PCT  -0.11638412
    RHS ZMUNI3_PCT 0.3620447765
    RHS ZMUNI4_PCT  -2.64636407
    RHS ZMUNI5_PCT  -0.73239201
    RHS ZMUNI6_PCT 0.3502285274
    RHS ZMUNI7_PCT 0.4499559593
    RHS ZMUNI8_PCT 0.2427930298
    RHS ZMUNI9_PCT 0.5336075847
BOUNDS
 LO BOUND QMUNI1 -0.000548662
 UP BOUND QMUNI1      1.1e+10
 LO BOUND QMUNI2 -0.000420923
 UP BOUND QMUNI2      1.1e+10
 LO BOUND QMUNI3 -0.000475258
 UP BOUND QMUNI3      1.1e+10
 LO BOUND QMUNI4 -0.00019827 
 UP BOUND QMUNI4      1.1e+10
 LO BOUND QMUNI5 -0.000308337
 UP BOUND QMUNI5      1.1e+10
 LO BOUND QMUNI6 -0.000415248
 UP BOUND QMUNI6      1.1e+10
 LO BOUND QMUNI7  -8.64313e-5
 UP BOUND QMUNI7      1.1e+10
 LO BOUND QMUNI8 -0.00022524 
 UP BOUND QMUNI8      1.1e+10
 LO BOUND QMUNI9 -0.000230741
 UP BOUND QMUNI9      1.1e+10
ENDATA
